Problem:    
Rows:       248
Columns:    89 (72 integer, 72 binary)
Non-zeros:  820
Status:     INTEGER OPTIMAL
Objective:  value = 25.88842 (MINimum)

   No.   Row name        Activity     Lower bound   Upper bound
------ ------------    ------------- ------------- -------------
     1 r.5                   525.888             0               
     2 r.6                  -491.586      -497.085               
     3 r.7                   25.8884             0               
     4 r.8                   6.56785      -492.432               
     5 r.9                   25.8884             0               
     6 r.10                  5.49877      -495.802               
     7 r.11                  525.888             0               
     8 r.12                 -481.961      -493.464               
     9 r.13                  25.8884             0               
    10 r.14                  1.30038      -496.374               
    11 r.15                  525.888             0               
    12 r.16                 -477.327      -495.366               
    13 r.17                  25.8884             0               
    14 r.18                 -472.616      -498.504               
    15 r.19                  525.888             0               
    16 r.20                 -488.822      -497.551               
    17 r.21                  25.8884             0               
    18 r.22                  -2.3259      -497.747               
    19 r.23                  525.888             0               
    20 r.24                 -491.271      -497.839               
    21 r.25                  525.888             0               
    22 r.26                 -474.112      -485.841               
    23 r.27                  25.8884             0               
    24 r.28                 -448.448      -474.337               
    25 r.29                  25.8884             0               
    26 r.30                  11.7291      -496.685               
    27 r.31                  525.888             0               
    28 r.32                 -474.112      -499.785               
    29 r.33                  25.8884             0               
    30 r.34                 0.567846      -499.527               
    31 r.35                  525.888             0               
    32 r.36                 -499.432      -499.432               
    33 r.37                        1             1             = 
    34 r.38                        1             1             = 
    35 r.39                        1             1             = 
    36 r.40                        1             1             = 
    37 r.41                        1             1             = 
    38 r.42                        1             1             = 
    39 r.43                        1             1             = 
    40 r.44                        1             1             = 
    41 r.45                  497.085       4.19839               
    42 r.46                 -497.085      -497.085               
    43 r.47                  11.4711       6.53561               
    44 r.48                 -11.4711      -492.432               
    45 r.49                  492.886       3.62628               
    46 r.50                 -492.886      -497.085               
    47 r.51                  16.1052       4.63408               
    48 r.52                 -16.1052      -492.432               
    49 r.53                  18.9703       1.49605               
    50 r.54                 -18.9703      -497.085               
    51 r.55                  4.61029       2.44901               
    52 r.56                 -4.61029      -492.432               
    53 r.57                   489.26       2.25349               
    54 r.58                  -489.26      -497.085               
    55 r.59                  2.16128       2.16128               
    56 r.60                 -2.16128      -492.432               
    57 r.61                 -482.526      -482.841               
    58 r.62                 -456.862      -471.337               
    59 r.63                 -480.679      -482.841               
    60 r.64                 -455.016      -471.337               
    61 r.65                    3.315         3.315               
    62 r.66                   -3.315      -497.085               
    63 r.67                  19.3206      0.215385               
    64 r.68                 -19.3206      -492.432               
    65 r.69                 -492.154      -494.085               
    66 r.70                        6      -489.432               
    67 r.71                 -492.154      -494.085               
    68 r.72                        6      -489.432               
    69 r.73                  2.91536       2.91536               
    70 r.74                 -2.91536      -495.802               
    71 r.75                  488.529       7.56843               
    72 r.76                 -488.529      -493.464               
    73 r.77                  495.802       3.62628               
    74 r.78                 -495.802      -495.802               
    75 r.79                  4.63408       4.63408               
    76 r.80                 -4.63408      -493.464               
    77 r.81                  21.8857       1.49605               
    78 r.82                 -21.8857      -495.802               
    79 r.83                  493.139       2.44901               
    80 r.84                 -493.139      -493.464               
    81 r.85                  492.175       2.25349               
    82 r.86                 -492.175      -495.802               
    83 r.87                   490.69       2.16128               
    84 r.88                  -490.69      -493.464               
    85 r.89                  20.3897       14.1593               
    86 r.90                 -20.3897      -495.802               
    87 r.91                  33.5127       25.6632               
    88 r.92                 -33.5127      -493.464               
    89 r.93                  6.23036      -493.685               
    90 r.94                  -479.61      -496.785               
    91 r.95                 -6.30982      -493.685               
    92 r.96                 -492.151      -496.785               
    93 r.97                  4.93092      -492.802               
    94 r.98                 -482.529      -490.464               
    95 r.99                  4.93092      -492.802               
    96 r.100                -482.529      -490.464               
    97 r.101                 7.11375       2.91536               
    98 r.102                -7.11375      -496.374               
    99 r.103                 483.895       7.56843               
   100 r.104                -483.895      -495.366               
   101 r.105                 4.19839       4.19839               
   102 r.106                -4.19839      -496.374               
   103 r.107                 495.366       6.53561               
   104 r.108                -495.366      -495.366               
   105 r.109                 473.916      -493.374               
   106 r.110                -4.71144      -492.366               
   107 r.111                -9.87776      -493.374               
   108 r.112                -488.505      -492.366               
   109 r.113                 496.374       2.25349               
   110 r.114                -496.374      -496.374               
   111 r.115                 486.056       2.16128               
   112 r.116                -486.056      -495.366               
   113 r.117                  24.588       14.1593               
   114 r.118                 -24.588      -496.374               
   115 r.119                 28.8786       25.6632               
   116 r.120                -28.8786      -495.366               
   117 r.121                 10.4287      -493.685               
   118 r.122                -475.412      -496.785               
   119 r.123                -10.9439      -493.685               
   120 r.124                -496.785      -496.785               
   121 r.125                0.732534      -493.374               
   122 r.126                -477.895      -492.366               
   123 r.127                0.732534      -493.374               
   124 r.128                -477.895      -492.366               
   125 r.129                  481.03       2.91536               
   126 r.130                 -481.03      -498.504               
   127 r.131                  495.39       7.56843               
   128 r.132                 -495.39      -497.551               
   129 r.133                 478.114       4.19839               
   130 r.134                -478.114      -498.504               
   131 r.135                 6.86081       6.53561               
   132 r.136                -6.86081      -497.551               
   133 r.137                 473.916      -493.374               
   134 r.138                -4.71144      -492.366               
   135 r.139                -9.87776      -493.374               
   136 r.140                -488.505      -492.366               
   137 r.141                  470.29       2.25349               
   138 r.142                 -470.29      -498.504               
   139 r.143                 497.551       2.16128               
   140 r.144                -497.551      -497.551               
   141 r.145                 498.504       14.1593               
   142 r.146                -498.504      -498.504               
   143 r.147                 40.3735       25.6632               
   144 r.148                -40.3735      -497.551               
   145 r.149                 484.345      -493.685               
   146 r.150                -1.49605      -496.785               
   147 r.151                0.550987      -493.685               
   148 r.152                 -485.29      -496.785               
   149 r.153                -473.183      -492.504               
   150 r.154                 -489.39      -491.551               
   151 r.155                -473.183      -492.504               
   152 r.156                 -489.39      -491.551               
   153 r.157                   10.74       2.91536               
   154 r.158                  -10.74      -497.747               
   155 r.159                 497.839       7.56843               
   156 r.160                -497.839      -497.839               
   157 r.161                 7.82467       4.19839               
   158 r.162                -7.82467      -497.747               
   159 r.163                 9.30982       6.53561               
   160 r.164                -9.30982      -497.839               
   161 r.165                 3.62628       3.62628               
   162 r.166                -3.62628      -497.747               
   163 r.167                 13.9439       4.63408               
   164 r.168                -13.9439      -497.839               
   165 r.169                 29.7104       1.49605               
   166 r.170                -29.7104      -497.747               
   167 r.171                 2.44901       2.44901               
   168 r.172                -2.44901      -497.839               
   169 r.173                -471.786      -482.841               
   170 r.174                -446.122      -471.337               
   171 r.175                -482.841      -482.841               
   172 r.176                -457.177      -471.337               
   173 r.177                  14.055      -493.685               
   174 r.178                -471.786      -496.785               
   175 r.179                       3      -493.685               
   176 r.180                -482.841      -496.785               
   177 r.181                -2.89375      -491.747               
   178 r.182                -491.839      -491.839               
   179 r.183                -2.89375      -491.747               
   180 r.184                -491.839      -491.839               
   181 r.185                -482.526      -482.841               
   182 r.186                -456.862      -471.337               
   183 r.187                -480.679      -482.841               
   184 r.188                -455.016      -471.337               
   185 r.189                  479.61       4.19839               
   186 r.190                 -479.61      -485.841               
   187 r.191                 466.487       6.53561               
   188 r.192                -466.487      -474.337               
   189 r.193                 475.412       3.62628               
   190 r.194                -475.412      -485.841               
   191 r.195                 471.121       4.63408               
   192 r.196                -471.121      -474.337               
   193 r.197                 1.49605       1.49605               
   194 r.198                -1.49605      -485.841               
   195 r.199                 459.626       2.44901               
   196 r.200                -459.626      -474.337               
   197 r.201                -471.786      -482.841               
   198 r.202                -446.122      -471.337               
   199 r.203                -482.841      -482.841               
   200 r.204                -457.177      -471.337               
   201 r.205                 485.841         3.315               
   202 r.206                -485.841      -485.841               
   203 r.207                 474.337      0.215385               
   204 r.208                -474.337      -474.337               
   205 r.209                 496.685       2.91536               
   206 r.210                -496.685      -496.685               
   207 r.211                 480.679       7.56843               
   208 r.212                -480.679      -499.785               
   209 r.213                 6.23036      -493.685               
   210 r.214                 -479.61      -496.785               
   211 r.215                -6.30982      -493.685               
   212 r.216                -492.151      -496.785               
   213 r.217                 10.4287      -493.685               
   214 r.218                -475.412      -496.785               
   215 r.219                -10.9439      -493.685               
   216 r.220                -496.785      -496.785               
   217 r.221                 484.345      -493.685               
   218 r.222                -1.49605      -496.785               
   219 r.223                0.550987      -493.685               
   220 r.224                 -485.29      -496.785               
   221 r.225                  14.055      -493.685               
   222 r.226                -471.786      -496.785               
   223 r.227                       3      -493.685               
   224 r.228                -482.841      -496.785               
   225 r.229                 14.1593       14.1593               
   226 r.230                -14.1593      -496.685               
   227 r.231                 25.6632       25.6632               
   228 r.232                -25.6632      -499.785               
   229 r.233                -492.154      -494.085               
   230 r.234                       6      -489.432               
   231 r.235                -492.154      -494.085               
   232 r.236                       6      -489.432               
   233 r.237                 4.93092      -492.802               
   234 r.238                -482.529      -490.464               
   235 r.239                 4.93092      -492.802               
   236 r.240                -482.529      -490.464               
   237 r.241                0.732534      -493.374               
   238 r.242                -477.895      -492.366               
   239 r.243                0.732534      -493.374               
   240 r.244                -477.895      -492.366               
   241 r.245                -473.183      -492.504               
   242 r.246                 -489.39      -491.551               
   243 r.247                -473.183      -492.504               
   244 r.248                 -489.39      -491.551               
   245 r.249                -2.89375      -491.747               
   246 r.250                -491.839      -491.839               
   247 r.251                -2.89375      -491.747               
   248 r.252                -491.839      -491.839               

   No. Column name       Activity     Lower bound   Upper bound
------ ------------    ------------- ------------- -------------
     1 tt                    25.8884             0               
     2 s_1_1        *              1             0             1 
     3 t_1_1                 17.4743             0               
     4 s_1_6        *              1             0             1 
     5 s_2_1        *              0             0             1 
     6 t_2_1                 19.3206             0               
     7 s_2_6        *              0             0             1 
     8 s_1_2        *              0             0             1 
     9 t_1_2                 20.3897             0               
    10 s_1_7        *              0             0             1 
    11 s_2_2        *              1             0             1 
    12 t_2_2                 7.84947             0               
    13 s_2_7        *              1             0             1 
    14 s_1_3        *              0             0             1 
    15 t_1_3                  24.588             0               
    16 s_2_3        *              1             0             1 
    17 t_2_3                 3.21539             0               
    18 s_1_4        *              0             0             1 
    19 t_1_4                 498.504             0               
    20 s_2_4        *              1             0             1 
    21 t_2_4                 14.7103             0               
    22 s_1_5        *              0             0             1 
    23 t_1_5                 28.2143             0               
    24 s_2_5        *              1             0             1 
    25 t_2_5                 17.1593             0               
    26 t_1_6                       0             0               
    27 t_2_6                 474.337             0               
    28 t_1_7                 14.1593             0               
    29 t_2_7                       0             0               
    30 s_1_8        *              0             0             1 
    31 t_1_8                 25.3206             0               
    32 s_2_8        *              1             0             1 
    33 t_2_8                 25.3206             0               
    34 u_1_1_2      *              1             0             1 
    35 u_2_1_2      *              0             0             1 
    36 u_1_1_3      *              1             0             1 
    37 u_2_1_3      *              0             0             1 
    38 u_1_1_4      *              1             0             1 
    39 u_2_1_4      *              0             0             1 
    40 u_1_1_5      *              1             0             1 
    41 u_2_1_5      *              0             0             1 
    42 u_1_1_7      *              0             0             1 
    43 u_2_1_7      *              0             0             1 
    44 u_1_2_1      *              0             0             1 
    45 u_2_2_1      *              1             0             1 
    46 u_1_2_3      *              1             0             1 
    47 u_2_2_3      *              0             0             1 
    48 u_1_2_4      *              1             0             1 
    49 u_2_2_4      *              1             0             1 
    50 u_1_2_5      *              1             0             1 
    51 u_2_2_5      *              1             0             1 
    52 u_1_2_6      *              0             0             1 
    53 u_2_2_6      *              1             0             1 
    54 u_1_3_1      *              0             0             1 
    55 u_2_3_1      *              1             0             1 
    56 u_1_3_2      *              0             0             1 
    57 u_2_3_2      *              1             0             1 
    58 u_1_3_5      *              1             0             1 
    59 u_2_3_5      *              1             0             1 
    60 u_1_3_6      *              0             0             1 
    61 u_2_3_6      *              1             0             1 
    62 u_1_4_1      *              0             0             1 
    63 u_2_4_1      *              1             0             1 
    64 u_1_4_2      *              0             0             1 
    65 u_2_4_2      *              0             0             1 
    66 u_1_4_5      *              0             0             1 
    67 u_2_4_5      *              1             0             1 
    68 u_1_4_6      *              0             0             1 
    69 u_2_4_6      *              1             0             1 
    70 u_1_5_1      *              0             0             1 
    71 u_2_5_1      *              1             0             1 
    72 u_1_5_2      *              0             0             1 
    73 u_2_5_2      *              0             0             1 
    74 u_1_5_3      *              0             0             1 
    75 u_2_5_3      *              0             0             1 
    76 u_1_5_4      *              1             0             1 
    77 u_2_5_4      *              0             0             1 
    78 u_1_6_2      *              1             0             1 
    79 u_2_6_2      *              0             0             1 
    80 u_1_6_3      *              1             0             1 
    81 u_2_6_3      *              0             0             1 
    82 u_1_6_4      *              1             0             1 
    83 u_2_6_4      *              0             0             1 
    84 u_1_6_7      *              1             0             1 
    85 u_2_6_7      *              0             0             1 
    86 u_1_7_1      *              1             0             1 
    87 u_2_7_1      *              1             0             1 
    88 u_1_7_6      *              0             0             1 
    89 u_2_7_6      *              1             0             1 

Integer feasibility conditions:

KKT.PE: max.abs.err = 0.00e+00 on row 0
        max.rel.err = 0.00e+00 on row 0
        High quality

KKT.PB: max.abs.err = 8.26e-14 on row 55
        max.rel.err = 2.61e-14 on row 55
        High quality

End of output
